
  22   10
  10   10   10   10   10   10   10   10   10   10

   0   0   0   0   0   0   0   0   0   0   0  14 2 3 10 11 12 13 14 15 16 17 18 19 20 21 
   9   0   0   0  10   0   0   0   0   0   0   4 9 8 7 6 
   1   0   0   0  10   0   0   0   0   0   0   2 5 4 
   9   0   0   0   0   0   0   0   0  10   0   1 22
  10   0   0   0   0   0   0   0   0  10   0   1 22
   1   0   0   0   0   0   0  10   0   0   0   1 22
   9   0   0   0   0   0   0  10   0   0   0   1 22
   8   0   0   0   0  10   0   0   0   0   0   1 22
   9   0  10   0   0   0   0   0   0   0   0   1 22
   2   0   0   0  10   0   0   0   0   0   0   1 22
   9   0   0   0   0  10   0   0   0   0   0   1 22
  10  10   0   0   0   0   0   0   0   0   0   1 22
   1   0   0   0   0   0  10   0   0   0   0   1 22
   5   0   0   0   0   0   0  10   0   0   0   1 22
   3   0   0   0   0  10   0   0   0   0   0   1 22
   5   0   0   0  10   0   0   0   0   0   0   1 22
   7   0   0   0  10   0   0   0   0   0   0   1 22
   2   0   0   0   0   0   0  10   0   0   0   1 22
   2  10   0   0   0   0   0   0   0   0   0   1 22
   7   0   0   0   0  10   0   0   0   0   0   1 22
   6   0   0  10   0   0   0   0   0   0   0   1 22
   0   0   0   0   0   0   0   0   0   0   0   0 
